NAME : berlin52-R-3-1-a.9473.tour
COMMENT : Length = 9473
COMMENT : Found by LKH-3 [Keld Helsgaun] Tue Jul 30 13:14:23 2024
TYPE : TOUR
DIMENSION : 52
TOUR_SECTION
1
35
36
39
38
5
37
34
44
16
50
29
30
42
2
7
17
31
18
3
41
8
9
33
51
11
26
47
14
52
13
27
28
12
25
46
48
24
40
15
6
4
43
10
19
45
32
49
22
21
23
20
-1
EOF
